TOUR_SECTION
58
94
188
109
19
90
63
13
147
87
145
119
43
133
95
5
69
46
3
198
36
183
4
141
155
173
38
15
125
34
168
174
56
44
180
130
37
41
184
67
196
80
157
101
139
76
52
60
104
31
65
83
68
194
121
200
143
140
72
128
193
53
118
116
175
39
108
79
120
138
61
149
102
50
74
85
6
132
148
40
112
192
70
51
49
179
126
9
191
78
86
144
164
182
172
158
199
153
106
30
161
84
127
165
129
91
2
18
99
20
59
77
81
114
62
186
134
75
123
189
171
29
21
11
82
105
42
187
24
163
96
28
181
113
167
14
162
151
93
27
176
23
146
1
177
190
35
66
98
92
124
48
26
152
103
73
12
195
135
100
197
185
107
110
169
178
89
57
150
25
10
160
159
71
122
111
88
142
16
170
45
166
117
154
32
22
7
136
54
64
115
8
131
47
137
33
97
156
17
55
-1
EOF